(set-info :Origin "This instance was generated by: BanditFuzz-- an RL fuzzer for SMT solvers" )
(set-info :Author "Joe Scott, Fed Mora, Vijay Ganesh" )
(set-info :Contact "Joe Scott, joseph.scott@uwaterloo.ca")
(set-logic QF_BV)
(declare-const bool_0 Bool)
(declare-const bool_1 Bool)
(declare-const bool_2 Bool)
(declare-const bool_3 Bool)
(declare-const bool_4 Bool)
(declare-const bv_0 (_ BitVec 32))
(declare-const bv_1 (_ BitVec 32))
(declare-const bv_2 (_ BitVec 32))
(declare-const bv_3 (_ BitVec 32))
(declare-const bv_4 (_ BitVec 32))
(assert (bvult (bvxnor (bvnor bv_0 #x6485e7be ) (bvshl #xbfba9422  #xf19f0cb6 )) (bvlshr (bvnand #x954de01b  #x44a4f170 ) (bvxnor #x97828a9a  bv_0))))
(assert (=> (bvugt (bvnand #xb2957e7f  #x5e029c1e ) (bvnand #xa1c77592  bv_4)) (bvugt (bvshl bv_4 #xeee518f5 ) (bvnand #x1913ae3b  #xa50eb27c ))))
(assert (or (bvule (bvashr #x0033ce48  #xc952101f ) (bvsmod #x426bd03a  bv_3)) (bvsle (bvsmod bv_2 #x86bd26b2 ) (bvnand bv_4 #x7b369666 ))))
(assert (not (bvugt (bvor bv_3 bv_3) (bvadd bv_0 #x4a2a6b85 ))))
(assert (bvuge (bvor (bvsdiv bv_2 #x793263cc ) (bvor bv_1 bv_3)) (bvnor (bvmul bv_2 #x60f1c5b0 ) (bvnand bv_4 bv_2))))
(check-sat)
(exit)
